27 27
21
3 3   0 24
3 4   0 20
3 5   7 22
3 6   18 21
3 7   21 20
3 8   24 19
3 9   4 11
3 10   7 12
3 11   4 0
3 12   7 0
3 19   24 0
3 20   21 0
3 21   14 0
4 3   3 24
4 4   3 20
4 6   14 21
4 7   17 14
4 8   10 19
4 14   17 0
4 19   10 0
4 20   0 0